c instance by G2
c solution = 101111101000101
c Known solution cost is 786 
p cnf 15 30
w 95 70 54 91 47 24 54 87 3 73 24 25 62 38 39
5 -4 -6 0
7 2 -5 0
14 5 -9 0
6 10 -9 0
-7 5 -9 0
15 10 -1 0
12 -6 -2 0
3 8 4 0
-15 -12 2 0
9 12 2 0
11 -3 -14 0
8 -5 -11 0
8 -3 -2 0
-9 8 1 0
-10 -1 11 0
13 10 14 0
3 12 15 0
-13 -14 3 0
-12 -11 -15 0
-9 -8 -7 0
-8 -11 12 0
13 1 -4 0
-8 12 -4 0
-6 15 -5 0
13 -5 -11 0
-1 -13 15 0
5 -7 -13 0
-15 3 8 0
15 -13 10 0
11 8 4 0
